1000 1766
1 2 3 4 5 6 7 8 9 10 11 12 13 14 15 16 17 18 19 20 21 22 23 24 25 26 27 28 29 30 31 32 33 34 35 36 37 38 39 40 41 42 43 44 45 46 47 48 49 50 51 52 53 54 55 56 57 58 59 60 61 62 63 64 65 66 67 68 69 70
0 71 72 73 74 75 76 77 78 79 80 81 82 83 84 85 86 87 88 89 90 91 92 93 94 95
0 3 4 12 16 29 40 55 96 97 98 99 100 101 102 103 104 105 106 107 108 109 110 111 112 113 114 115 116 117 118 119 120 121 122 123 124 125 126 127 128 129 130 131 132 133 134 135
0 2 4 12 16 29 37 40 50 55 66 119 136 137 138 139 140 141 142 143 144 145 146 147 148 149 150 151 152 153 154 155 156 157 158 159 160 161 162 163 164 165 166 167 168 169 170 171 172 173 174 175
0 2 3 12 16 37 55 66 109 119 163 170 176 177 178 179 180 181 182 183 184 185 186 187 188 189 190 191 192 193 194 195 196 197 198 199 200 201 202 203 204 205 206 207
0 14 208 209 210 211 212 213 214 215 216 217 218 219 220 221 222
0 64 223 224 225 226 227 228 229 230 231 232 233 234 235 236 237 238 239 240 241 242 243 244 245 246 247 248 249 250 251 252 253 254 255 256 257 258 259 260 261 262 263 264 265 266 267 268
0 14 39 269 270 271 272 273 274 275 276 277 278 279 280 281 282 283 284 285 286 287 288 289 290 291 292 293 294 295 296 297 298 299 300 301 302 303 304 305 306 307 308 309 310 311 312 313 314 315 316 317 318 319 320 321 322 323 324 325 326 327 328 329 330 331
0 35 43 47 67 70 332 333 334 335 336 337
0 51 194 195 201 203 204 294 297 334 338 339 340 341 342 343 344 345 346 347 348 349 350 351 352 353 354 355 356 357 358 359 360 361 362 363 364 365 366 367 368 369 370 371 372 373 374 375 376 377 378 379 380 381 382 383 384 385 386 387 388 389 390 391 392 393 394 395 396 397 398 399 400 401 402 403 404 405 406 407 408 409 410 411 412 413 414 415 416 417 418 419 420 421 422 423 424 425 426 427 428 429 430 431 432 433 434 435 436 437 438 439 440 441 442 443 444 445 446 447 448 449 450 451 452 453 454 455 456 457 458 459 460 461 462 463 464 465 466 467 468 469 470 471 472 473 474 475 476 477 478 479 480 481 482 483 484 485 486 487 488 489 490 491 492 493 494 495 496 497 498 499 500 501 502 503 504 505 506 507 508 509 510 511 512 513 514 515 516 517 518 519 520 521 522 523 524 525 526 527 528 529 530 531 532 533 534 535 536 537 538 539 540 541 542 543 544 545 546 547 548 549 550 551 552 553 554 555 556 557 558 559 560 561 562 563 564 565 566 567 568 569 570 571 572 573 574 575 576 577 578 579 580 581 582 583 584 585 586 587 588 589 590 591 592 593 594 595 596 597 598 599 600 601 602 603 604 605 606 607 608 609 610 611 612 613 614 615 616 617 618 619 620 621 622 623 624 625 626 627 628 629 630 631 632 633 634 635 636 637 638 639 640 641 642 643 644 645 646 647 648 649 650 651 652 653 654 655 656 657 658 659 660 661 662 663 664 665 666 667 668 669 670 671 672 673 674 675 676 677 678 679 680 681 682 683 684 685 686 687 688 689 690 691 692 693 694 695 696 697 698 699 700 701 702 703 704 705 706 707 708 709 710 711 712 713 714 715 716 717 718 719 720 721 722 723 724 725 726 727 728 729 730 731 732 733 734 735 736 737 738 739 740 741 742 743 744 745 746 747 748 749 750 751 752 753 754 755 756 757 758 759 760 761 762 763 764 765 766 767 768 769 770 771 772 773 774 775 776 777 778 779 780 781 782 783 784 785 786 787 788 789 790 791 792 793 794 795 796 797 798 799 800 801 802 803 804 805 806 807 808 809 810 811 812 813 814 815 816 817 818 819 820 821 822 823 824 825 826 827 828 829 830 831 832 833 834 835 836 837 838 839 840 841 842 843 844 845 846 847 848 849 850 851 852 853 854 855 856 857 858 859 860 861 862 863 864 865 866 867 868 869 870 871 872 873 874 875 876 877 878 879 880 881 882 883 884 885 886 887 888 889 890 891 892 893 894 895 896 897 898 899 900 901 902 903 904 905 906 907 908 909 910 911 912 913 914 915 916 917 918 919 920 921 922 923 924 925 926 927 928 929 930 931 932 933 934 935 936 937 938 939 940 941 942 943 944 945 946 947 948 949 950 951 952 953 954 955 956 957 958 959 960 961 962 963 964 965 966 967 968 969 970 971 972 973 974 975 976 977 978 979 980 981 982 983 984 985 986 987 988 989 990 991 992 993 994 995 996 997 998 999
0 140 176 212 214 286 306 433
0 30 67 70
0 2 3 4 16 29 37 40 55 98 105 108 109 112 118 126 127 168
0
0 5 7 21 30 35 39 61 64 65 67 68 70 213 216 241 256 286 303 306 307 308 309 310 311 315 321 326
0 18 43 47 336
0 2 3 4 12 37 40 55 66 109 120 168
0 19 60 433
0 15 35 43 57 63 70 336
0 17 52 56
0 476 948
0 14
0
0
0
0
0 35 48 70 154
0 822
0 161 281 306 325
0 2 3 12 40 66 105 109 119 126 135 160 168
0 11 14 64 65 67 70 216 239 307 317 334
0 213
0 59
0 227 239 241 274
0
0 8 14 18 26 43 47 64 299 303 333 334 336
0 161 166 324 473 767
0 3 4 12 16 40 55 66 120 163 168 170
0 878
0 7 14 309 334
0 2 3 12 16 29 37 109 119 126 148 153
0
0 210 294
0 8 15 18 35 47 54 67 69 70 163 334 336
0
0 252
0
0 8 15 35 43 70 199 333 335 336 337
0 26 64 307
0
0 3 66 120 168
0 9 61 246 294 425 604
0 19
0
0 43 332 336
0 2 3 4 12 16 37 109 119 164 293
0 19
0 18 303 342 364
0
0 32
0 17 433
0 14 51 530
0 461 669
0 18 67 70 300 319 365 428
0 6 14 30 35 48 65 67 227 234 241 247 256 264 321
0 14 30 64 156 230 274 325 334
0 3 4 16 29 37 50 119 120
0 8 11 14 30 43 63 64 336
0 14
0 43 120
0 8 11 14 18 26 30 43 47 63 334 336 337
1 78 84
1 89
1 75
1
1 73 79
1
1
1 71 84 85
1 75 93
1
1 89
1
1
1 71 78 88
1 78
1
1
1 84 502
1 72 81
1
1
1 93
1 79 92 95
1
1 93
2 97 101 103 116 122 123 130 132
2 96 101 122 123 128 130 132
2 12 108 112 118 127 131
2 112 120
2 101 106 116 124
2 96 97 100 132 134
2 120 126 127 129 131 135
2 96 123
2
2 12 29 108 112 118 127
2 100 108
2
2 12 98 105 106 112 118 129
2 4 12 16 29 40 55 119 168 169
2 134
2
2 12 98 99 105 108 118 120 126 127 131 133
2
2
2
2 96 100
2
2 12 98 105 108 112 129
2 3 4 29 40 55 66 109 120
2 16 37 50 66 69 99 102 112 119 126 131 135 323
2
2 96 97 132
2 96 97 103 132
2 100
2 975
2 12 29 40 102 112 120 127 129 131 135
2 12 98 102 105 112 126 131 133 135
2 97 130 132
2 102 108 118 126 135
2 96 97 128 132 134 983
2 98 102 112 120 126 127 133 135
2 96 97 101 122 123 128 130
2 112 127 131
2 101 110 130
2 29 102 120 126 127 129 131
3
3 156 260 878
3 140
3
3 10 138 154 160 166 174 176
3 142 156 165 173 236 280
3 141 156
3 154 160 166 260 286
3 146 164 171 502
3
3 144 150 164 625
3 165 334
3 40 169
3
3 146 164 173
3 155 169 172
3 156 425 604
3 40
3 26 140 143 160 161 166 174 227
3 151 169 172 175
3 65 137 141 142 152 162 165 181 219 229 284 285 306 669 882
3
3 173
3 160 169
3 29 140 143 154 159 330
3 28 36 154 324
3 156 181 285
3 4 37 43 199
3 55 144 146 150 167 173 421 634 672
3 141 147 156
3 36 140 143 154 265 282 751
3 164 171 173
3 12 16 29 37 50 109 265
3 109 148 151 155 159 172 175
3 4 37
3 144 167
3 151 155 169
3 141 150 158 164 167
3 140 154
3 155 169
4 10 140 195 201 234 282 555
4
4 201 548
4
4
4 156 162 204
4
4 194 207
4
4 194 204 555
4
4
4 828
4
4
4 194 608
4 204
4 243 364
4 9 183 185 191 195 201 207
4 9 176 194 201
4
4
4
4 47 163
4
4 9 176 178 194 195 380 495 572 649 957
4
4 9 642
4 9 181 185 192 206 341 854 943
4
4 204
4 183 194 420
5 246 286 341 360 430 432
5 213 341
5 42 364
5 212 213 216
5 10 211 213 216 342
5 14 31 209 211 212 216 220
5 10 233 330
5
5 14 30 211 212 213 220 264 267 696
5 219
5 222
5 156 217
5 213 216 222
5
5 218 220
6
6
6
6
6 33 64 154 241 247 248 249 250 251 252 255 257 259 260 264 267
6 687 926
6 156 245 249 257 265
6 65 233 247 274 300 325
6
6
6 214 230 256 321
6 64 176 247 307
6
6 141 260
6
6
6 30 33 281
6
6 14 33 64 227 247 256 267 321
6 244 603
6 193 334
6 242
6 229 265
6 51 208 249 257 263 274
6 64 227 230 234 241 255 259 264 267 300 323
6 227 255 256 294
6 227 229 246 250 252 257 266 424
6 227 249 252 257
6 227 318 331
6 45 227 249 250 257 266
6
6
6 227 247 248 256 259 264 267
6 14 64 233 241 248 255 258 321
6 227 229 246 249 250 252 265 266 329
6 256 260 318
6 227 247 255 267
6 137 143 227 236 258
6
6
6 246
6 64 216 227 247 255 267
6 166 168 229 245 257
6 249 252 257
6 216 227 241 247 255 259 264
6 963
7 276 280 281 285 290 300 306 307 317 320 323
7 286 321
7 273 279
7 274 307 328
7 271 279 308 326
7 33 65 230 246 272 278 285 300 307 317 322 329
7 283 302 316
7 269 281 307
7
7 274 307 328
7 271 273 303 326
7 141 269 306 307 323
7 28 239 269 276 285 290 306 307 317 464 752
7 166 176 286 342 476
7 275 306 316
7 156 285 286 306
7 156 162 269 274 281 284 290 303 307 320 323 328
7 10 14 143 208 270 282 284 321 792
7 330
7
7
7 269 281 285 306 307
7 316
7 294 297 307 317 331
7 55 399 767 796 842 882
7 9 42 51 248 292 319 701
7 329
7
7 9 292 307 325 328
7
7 35 303
7 63 230 247 269 274 307 322 325 696 752
7
7 275 316
7 14 35 57 279 285 299 304 306 307 322
7 303 313
7 319 322 530 752
7 10 14 28 156 269 280 281 283 284 290 303 307 310
7 14 30 48 234 269 272 274 276 278 280 281 285 290 292 297 300 303 306 317 323 331
7 14 273 326
7 14 39
7 14 306 323
7 14 321
7 794
7 304
7
7 14
7 275 283 291 302
7 30 269 274 281 292 307 322 323 325 328 752
7 251 258 669
7 63 294 305
7 269 285 323
7 14 64 233 241 256 270 286 311
7 274 300 303 305 317 325 331 752
7 120 247 269 280 285 307 310 317 320
7 36 161 399 751
7 28 65 230 297 300 317 322 328 752
7 14 273 279 308
7
7 272 278 285 297 317 325
7 257 274 295
7 160 214 287 433
7 251 292 307 322
8 54
8 35 47
8 9 30 35 39 43 65 70 147 243 336
8 47
8 15 18 35 43 47 54 67 70 334
8 47 70
9
9
9
9 204 208 209 346
9 57 212 282
9
9
9
9 341 658 684
9
9 555
9
9 491 562
9
9
9
9
9
9
9
9
9
9 208 430 432
9
9 672
9
9 57 193 210 433 889
9 63
9
9
9
9
9
9
9
9
9
9 783
9
9
9
9
9 201 495 572 957
9
9
9
9
9
9
9 673
9 739
9
9 432
9
9
9 548 557 928
9 689
9
9
9
9 928
9 293 324
9
9
9 528
9
9
9
9
9 671
9
9
9
9
9
9 425
9
9 622
9
9 474 491 658
9
9 554 653 912
9 207
9 164
9
9
9 249
9 51 152 413
9
9
9 63
9
9 208 360 579 642 854 951
9
9 208 360 390
9 10 17 60 330 364
9
9
9 708
9
9
9
9
9
9 748
9
9
9
9
9
9
9
9
9
9
9
9
9
9
9
9
9
9
9 62
9
9
9 281 676
9 621
9
9
9
9
9
9
9
9 36
9 417 658
9
9 20 282
9
9
9 954
9
9
9
9
9
9
9
9
9
9 719
9
9 350 417 775
9
9
9
9 201 380 898
9
9
9 562
9
9
9
9 88 144
9
9
9
9
9
9
9 720 954
9
9
9
9
9
9
9 973
9
9
9
9
9
9
9 576
9 696
9
9
9
9 402 986
9
9 61 305
9
9 792
9
9
9
9
9
9
9
9
9
9
9
9
9
9
9
9 178 393 557
9
9
9
9
9
9 419 932
9 176 185 348
9
9 393 548 928
9
9
9
9
9 350 498 605 718
9
9
9
9
9
9 741
9
9
9
9 201 380 717
9
9
9
9 523
9
9
9 430 785
9
9
9
9 715
9
9 671
9
9 959
9
9
9
9
9
9
9 954
9
9
9
9
9
9
9
9
9 242
9 51 152
9 562
9
9
9 191 687 926
9
9
9
9 810
9
9
9 774
9
9
9
9
9
9 465
9 415
9
9
9 146 975
9 835
9
9
9
9
9
9
9
9 164
9
9
9
9
9
9
9
9 203 430 717 854 923
9 736
9
9
9
9
9
9 201
9
9
9
9 419 912 943
9 984
9
9
9
9 346 417 474
9
9 803
9
9
9
9
9 754
9
9
9
9 62 156 318
9
9 407 585 834
9 164 362
9 387
9
9
9 464
9
9
9
9
9
9
9
9 346
9
9
9 228 608 926
9
9 394
9
9
9
9
9
9
9 216 300 524
9
9
9
9
9 294 745
9
9
9
9
9
9 753
9 436
9
9
9
9 794
9
9
9 583
9
9 572 642
9 562
9 489
9 509 828 943 954
9
9
9
9
9
9
9
9
9
9
9
9
9
9
9
9 643
9
9
9 388
9
9 568
9
9
9
9 701
9
9
9 442
9
9
9 166 324
9 281 300 305 317 322 325
9 707
9 665
9
9
9
9
9
9
9
9
9
9
9
9
9 36 293
9
9
9
9
9
9
9 615
9 491
9
9
9
9
9
9
9
9 375
9
9 579
9
9
9 871
9
9
9
9 286 532
9
9 312 712
9
9 293
9
9
9
9
9
9
9 660
9
9
9
9
9
9
9 612
9
9
9
9
9
9
9
9
9
9
9
9 27
9
9
9
9
9
9 188 720
9
9
9
9
9 943
9 671
9 626
9
9
9
9
9
9
9 293
9
9
9
9
9
9
9
9
9
9
9
9 204 430 642 923 951
9
9
9
9
9
9
9
9
9
9
9
9
9
9
9
9
9 788
9
9
9
9
9
9
9 38 137
9
9
9
9 156 293
9
9
9
9
9
9
9 364
9
9
9
9
9
9
9
9
9 495
9
9
9
9
9
9
9
9
9
9
9
9
9
9 419 653 943
9
9
9
9
9
9
9
9
9
9
9 642 854 932
9
9
9 228 608 687
9
9 393 398 557
9
9
9
9 554 923
9
9
9
9
9
9
9
9
9
9
9 204 653 720 833 912
9
9
9
9
9 20
9
9
9 430 854
9
9
9 479 509 594 720
9
9
9 201 380
9
9 587
9
9
9
9 268
9
9
9
9
9
9
9
9
9
9 516
9
9 125 625
9
9
9
9
9
9
9
9 130
9 654
9
9 528
9
9
9
9
9
9
9
9
9
9
9
9
9
